smt/acc-fold/bench/smt/tll_slk-1.smt
(set-logic QF_S)

(declare-sort node 0)
(declare-fun parent () (Field node node))
(declare-fun left () (Field node node))
(declare-fun right () (Field node node))
(declare-fun next () (Field node node))

(declare-fun tree ((?in node))
Space (tospace
(or
(exists ((?flted_11_35 node)) (tobool (pto ?in (sref (ref parent ?Anon_14) (ref left ?D1) (ref right ?flted_11_35) (ref next ?Anon_15) )))
(and 
(distinct ?r nil)
(tobool (ssep 
(pto ?in (sref (ref parent ?Anon_16) (ref left ?l) (ref right ?r) (ref next ?D2) ))
(tree ?l)
(tree ?r)
) )
))))

(declare-fun tll ((?in node) (?p node) (?ll node) (?lr node))
Space (tospace
(or
(exists ((?p_26 node)(?lr_27 node)(?flted_16_25 node)) (tobool (pto ?in (sref (ref parent ?p_26) (ref left ?D1) (ref right ?flted_16_25) (ref next ?lr_27) )))
(exists ((?p_28 node)(?self_29 node)(?ll_30 node)(?self_31 node)(?z_32 node)(?lr_33 node)) (tobool (ssep (ssep (pto ?in (sref (ref parent ?p_28) (ref left ?l) (ref right ?r) (ref next ?D2) )) (tll ?l ?self_29 ?ll_30 ?z)) (tll ?r ?self_31 ?z_32 ?lr_33)))
)))


(declare-fun xprm () node)


(assert 
(exists ((flted_11_1130 node)(Anon_1131 node)(D1_1132 node)(Anon_1133 node)) (tobool (pto xprm (sref (ref parent Anon_1131) (ref left D1_1132) (ref right flted_11_1130) (ref next Anon_1133) )))

)

(assert (not 
(and 
(tobool (ssep 
(pto xprm (sref (ref parent parent_36_1074') (ref left left_36_1075') (ref right right_36_1076') (ref next next_36_1077') ))
emp
) )
)
))

(check-sat)